HmaxDs = 0.000000
HmaxUB_percent = 1.158938
HmaxUB_real = 3223.783066
FTnetDs = 0.500000
FTnetUB_percent = 2.135995
FTnetUB_real = 5774.065756
TIFgap = 0.400000
LimCIPF = 60.615282
SCIP version 1.1.0 [precision: 8 byte] [memory: block] [mode: optimized] [LP solver: Clp 1.8.2]
Copyright (c) 2002-2008 Konrad-Zuse-Zentrum fuer Informationstechnik Berlin (ZIB)

reading user parameter file </home/fabio/docs/hierarquia/models/scip.set>

read problem <data.N30.I1.s1.cluster1.T5.GL2.W2.TIFgap0.4.mps.gz>
============

original problem has 335 variables (170 bin, 0 int, 0 impl, 165 cont) and 142 constraints

solve problem
=============

presolving:
(round 1) 3 del vars, 3 del conss, 4 chg bounds, 0 chg sides, 32 chg coeffs, 0 upgd conss, 0 impls, 40 clqs
(round 2) 5 del vars, 3 del conss, 4 chg bounds, 1 chg sides, 32 chg coeffs, 0 upgd conss, 0 impls, 40 clqs
(round 3) 5 del vars, 3 del conss, 4 chg bounds, 3 chg sides, 32 chg coeffs, 0 upgd conss, 0 impls, 40 clqs
(round 4) 5 del vars, 4 del conss, 4 chg bounds, 3 chg sides, 32 chg coeffs, 41 upgd conss, 0 impls, 40 clqs
(round 5) 56 del vars, 4 del conss, 4 chg bounds, 3 chg sides, 32 chg coeffs, 41 upgd conss, 238 impls, 28 clqs
(round 6) 56 del vars, 16 del conss, 4 chg bounds, 3 chg sides, 32 chg coeffs, 41 upgd conss, 238 impls, 28 clqs
(round 7) 73 del vars, 16 del conss, 4 chg bounds, 3 chg sides, 32 chg coeffs, 41 upgd conss, 238 impls, 24 clqs
(round 8) 73 del vars, 20 del conss, 4 chg bounds, 3 chg sides, 32 chg coeffs, 41 upgd conss, 238 impls, 24 clqs
presolving (9 rounds):
 73 deleted vars, 20 deleted constraints, 4 tightened bounds, 0 added holes, 3 changed sides, 32 changed coefficients
 238 implications, 24 cliques
presolved problem has 262 variables (102 bin, 0 int, 0 impl, 160 cont) and 122 constraints
      1 constraints of type <knapsack>
     24 constraints of type <setppc>
     97 constraints of type <linear>
Presolving Time: 0.04

 time | node  | left  |LP iter| mem |mdpt |frac |vars |cons |ccons|cols |rows |cuts |confs|strbr|  dualbound   | primalbound  |  gap   
  0.1s|     1 |     0 |   108 | 830k|   0 |  42 | 262 | 122 | 122 | 262 | 122 |   0 |   0 |   0 | 4.577931e+01 |      --      |    Inf 
  0.2s|     1 |     0 |   803 | 898k|   0 |  43 | 262 | 122 | 122 | 262 | 142 |  20 |   0 |   0 | 5.374537e+01 |      --      |    Inf 
  0.2s|     1 |     0 |   907 | 927k|   0 |  46 | 262 | 122 | 122 | 262 | 160 |  38 |   0 |   0 | 1.220981e+03 |      --      |    Inf 
  0.3s|     1 |     0 |   956 | 951k|   0 |  49 | 262 | 122 | 122 | 262 | 177 |  55 |   0 |   0 | 1.652385e+03 |      --      |    Inf 
  0.5s|     1 |     0 |  1069 | 971k|   0 |  47 | 262 | 122 | 122 | 262 | 193 |  71 |   0 |   0 | 2.274603e+03 |      --      |    Inf 
  0.6s|     1 |     0 |  1089 | 980k|   0 |  49 | 262 | 122 | 122 | 262 | 199 |  77 |   0 |   0 | 2.327865e+03 |      --      |    Inf 
  0.8s|     1 |     0 |  1102 | 984k|   0 |  49 | 262 | 122 | 122 | 262 | 202 |  80 |   0 |   0 | 2.332669e+03 |      --      |    Inf 
  0.9s|     1 |     0 |  1154 | 990k|   0 |  49 | 262 | 122 | 122 | 262 | 206 |  84 |   0 |   0 | 2.386540e+03 |      --      |    Inf 
  1.1s|     1 |     0 |  1205 | 998k|   0 |  50 | 262 | 122 | 122 | 262 | 212 |  90 |   0 |   0 | 2.426923e+03 |      --      |    Inf 
  1.2s|     1 |     0 |  1234 |1001k|   0 |  50 | 262 | 122 | 122 | 262 | 215 |  93 |   0 |   0 | 2.449208e+03 |      --      |    Inf 
  1.4s|     1 |     0 |  1262 |1004k|   0 |  49 | 262 | 122 | 122 | 262 | 218 |  96 |   0 |   0 | 2.502696e+03 |      --      |    Inf 
  1.9s|     1 |     2 |  1324 |1006k|   0 |  49 | 262 | 122 | 122 | 262 | 218 |  96 |   0 |  24 | 2.502696e+03 |      --      |    Inf 

SCIP Status        : problem is solved [infeasible]
Solving Time (sec) : 2.47
Solving Nodes      : 5
Primal Bound       : +1.00000000000000e+20 (0 solutions)
Dual Bound         : +1.00000000000000e+20
Gap                : 0.00 %

primal solution:
================

no solution available

Statistics
==========

SCIP Status        : problem is solved [infeasible]
Solving Time       :       2.47
Original Problem   :
  Problem name     : labtel
  Variables        : 335 (170 binary, 0 integer, 0 implicit integer, 165 continuous)
  Constraints      : 142 initial, 142 maximal
Presolved Problem  :
  Problem name     : t_labtel
  Variables        : 262 (102 binary, 0 integer, 0 implicit integer, 160 continuous)
  Constraints      : 122 initial, 123 maximal
Presolvers         :       Time  FixedVars   AggrVars   ChgTypes  ChgBounds   AddHoles    DelCons   ChgSides   ChgCoefs
  trivial          :       0.00          0          0          0          0          0          0          0          0
  dualfix          :       0.00          0          0          0          0          0          0          0          0
  boundshift       :       0.00          0          0          0          0          0          0          0          0
  inttobinary      :       0.00          0          0          0          0          0          0          0          0
  implics          :       0.00          0          0          0          0          0          0          0          0
  probing          :       0.03         68          0          0          0          0          0          0          0
  knapsack         :       0.00          0          0          0          0          0          0          0          0
  setppc           :       0.00          0          0          0          0          0         16          0          0
  linear           :       0.01          0          5          0          4          0          4          3         32
  logicor          :       0.00          0          0          0          0          0          0          0          0
  root node        :          -         19          -          -         28          -          -          -          -
Constraints        :     Number  #Separate #Propagate    #EnfoLP    #EnfoPS    Cutoffs    DomReds       Cuts      Conss   Children
  integral         :          0          0          0          4          0          1          1          0          0          4
  knapsack         :          1         11        335          0          0          0          0          0          0          0
  setppc           :         24         11        335          0          0          0         86          0          0          0
  linear           :         97         11        335          0          0          5         22          2          0          0
  logicor          :          0+         0          1          0          0          0          1          0          0          0
  countsols        :          0          0          0          0          0          0          0          0          0          0
Constraint Timings :  TotalTime   Separate  Propagate     EnfoLP     EnfoPS
  integral         :       0.80       0.00       0.00       0.80       0.00
  knapsack         :       0.00       0.00       0.00       0.00       0.00
  setppc           :       0.00       0.00       0.00       0.00       0.00
  linear           :       0.01       0.00       0.01       0.00       0.00
  logicor          :       0.00       0.00       0.00       0.00       0.00
  countsols        :       0.00       0.00       0.00       0.00       0.00
Propagators        :       Time      Calls    Cutoffs    DomReds
  rootredcost      :       0.00          0          0          0
  pseudoobj        :       0.01         27          1          0
Conflict Analysis  :       Time      Calls    Success  Conflicts   Literals    Reconvs ReconvLits   LP Iters
  propagation      :       0.00          1          1          1        1.0          0        0.0          -
  infeasible LP    :       0.00          0          0          0        0.0          0        0.0          0
  bound exceed. LP :       0.00          0          0          0        0.0          0        0.0          0
  strong branching :       0.00          0          0          0        0.0          0        0.0          0
  pseudo solution  :       0.00          0          0          0        0.0          0        0.0          -
  applied globally :          -          -          -          1        1.0          -          -          -
  applied locally  :          -          -          -          0        0.0          -          -          -
Separators         :       Time      Calls    Cutoffs    DomReds       Cuts      Conss
  cut pool         :       0.00         10          -          -         11          -    (maximal pool size: 162)
  redcost          :       0.00         14          0          0          0          0
  impliedbounds    :       0.00         11          0          0          0          0
  intobj           :       0.00          0          0          0          0          0
  gomory           :       0.02         11          0          0          3          0
  strongcg         :       0.03         11          0          0          1          0
  cmir             :       0.49         10          0          0        135          0
  flowcover        :       0.67         10          0          0         27          0
  clique           :       0.00         11          0          0          0          0
  zerohalf         :       0.00          0          0          0          0          0
  mcf              :       0.00          0          0          0          0          0
Pricers            :       Time      Calls       Vars
  problem variables:       0.00          0          0
Branching Rules    :       Time      Calls    Cutoffs    DomReds       Cuts      Conss   Children
  relpscost        :       0.80          4          1          1          0          0          4
  pscost           :       0.00          0          0          0          0          0          0
  inference        :       0.00          0          0          0          0          0          0
  mostinf          :       0.00          0          0          0          0          0          0
  leastinf         :       0.00          0          0          0          0          0          0
  fullstrong       :       0.00          0          0          0          0          0          0
  allfullstrong    :       0.00          0          0          0          0          0          0
  random           :       0.00          0          0          0          0          0          0
Primal Heuristics  :       Time      Calls      Found
  LP solutions     :       0.00          -          0
  pseudo solutions :       0.00          -          0
  oneopt           :       0.00          0          0
  coefdiving       :       0.00          0          0
  pscostdiving     :       0.00          0          0
  simplerounding   :       0.00          0          0
  rounding         :       0.00         14          0
  shifting         :       0.00         11          0
  intshifting      :       0.01          1          0
  fixandinfer      :       0.00          0          0
  feaspump         :       0.06          1          0
  fracdiving       :       0.00          0          0
  veclendiving     :       0.00          0          0
  intdiving        :       0.00          0          0
  actconsdiving    :       0.00          0          0
  objpscostdiving  :       0.00          0          0
  rootsoldiving    :       0.00          0          0
  linesearchdiving :       0.00          0          0
  guideddiving     :       0.00          0          0
  octane           :       0.00          0          0
  rens             :       0.17          1          0
  rins             :       0.00          0          0
  localbranching   :       0.00          0          0
  mutation         :       0.00          0          0
  crossover        :       0.00          0          0
  dins             :       0.00          0          0
LP                 :       Time      Calls Iterations  Iter/call   Iter/sec
  primal LP        :       0.00          0          0       0.00          -
  dual LP          :       0.14         15       1234      82.27    8814.29
  barrier LP       :       0.00          0          0       0.00          -
  diving/probing LP:       0.07         30        696      23.20    9942.86
  strong branching :       0.80         68       8661     127.37   10826.25
    (at root node) :          -         24       3387     141.12          -
  conflict analysis:       0.00          0          0       0.00          -
B&B Tree           :
  number of runs   :          1
  nodes            :          5
  nodes (total)    :          5
  nodes left       :          0
  max depth        :          2
  max depth (total):          2
  backtracks       :          0 (0.0%)
  delayed cutoffs  :          0
  repropagations   :          3 (25 domain reductions, 0 cutoffs)
  avg switch length:       2.80
  switching time   :       0.00
Solution           :
  Solutions found  :          0 (0 improvements)
  Primal Bound     : infeasible
  Dual Bound       :          -
  Gap              :       0.00 %
  Root Dual Bound  : +2.50269559248662e+03
